(set-info :smt-lib-version 2.6)
(set-logic QF_LRA)
(set-info :source |
TLP-GP automated DTP to SMT-LIB encoding for planning
by F.Maris and P.Regnier, IRIT - Universite Paul Sabatier, Toulouse

|)
(set-info :category "industrial")
(set-info :status sat)
(declare-fun St_spy_variable () Real)
(declare-fun t_Init_0 () Real)
(declare-fun t_Goal_4 () Real)
(declare-fun t_C_rb_ga1_gc1_3 () Real)
(declare-fun t_A_ra_ga2_gb1_1 () Real)
(declare-fun t_B_ra_rb_gb2_2 () Real)
(declare-fun t_C_rb_ga1_gc2_3 () Real)
(declare-fun t_A_ra_ga3_gb1_1 () Real)
(declare-fun t_B_ra_rb_gb3_2 () Real)
(declare-fun t_C_rb_ga1_gc3_3 () Real)
(declare-fun t_A_ra_ga4_gb1_1 () Real)
(declare-fun t_B_ra_rb_gb4_2 () Real)
(declare-fun t_C_rb_ga1_gc4_3 () Real)
(declare-fun t_A_ra_ga5_gb1_1 () Real)
(declare-fun t_B_ra_rb_gb5_2 () Real)
(declare-fun t_C_rb_ga1_gc5_3 () Real)
(declare-fun t_A_ra_ga6_gb1_1 () Real)
(declare-fun t_B_ra_rb_gb6_2 () Real)
(declare-fun t_C_rb_ga1_gc6_3 () Real)
(declare-fun t_A_ra_ga7_gb1_1 () Real)
(declare-fun t_B_ra_rb_gb7_2 () Real)
(declare-fun t_C_rb_ga1_gc7_3 () Real)
(declare-fun t_A_ra_ga8_gb1_1 () Real)
(declare-fun t_B_ra_rb_gb8_2 () Real)
(declare-fun t_A_ra_ga1_gb1_1 () Real)
(declare-fun t_B_ra_rb_gb1_2 () Real)
(declare-fun t_C_rb_ga1_gc8_3 () Real)
(assert (let ((?v_11 (- t_Goal_4 t_C_rb_ga1_gc1_3)) (?v_12 (- t_Goal_4 t_A_ra_ga2_gb1_1)) (?v_22 (- t_Goal_4 t_B_ra_rb_gb2_2)) (?v_24 (- t_Goal_4 t_C_rb_ga1_gc2_3)) (?v_25 (- t_Goal_4 t_A_ra_ga3_gb1_1)) (?v_27 (- t_Goal_4 t_B_ra_rb_gb3_2)) (?v_29 (- t_Goal_4 t_C_rb_ga1_gc3_3)) (?v_30 (- t_Goal_4 t_A_ra_ga4_gb1_1)) (?v_32 (- t_Goal_4 t_B_ra_rb_gb4_2)) (?v_34 (- t_Goal_4 t_C_rb_ga1_gc4_3)) (?v_35 (- t_Goal_4 t_A_ra_ga5_gb1_1)) (?v_37 (- t_Goal_4 t_B_ra_rb_gb5_2)) (?v_39 (- t_Goal_4 t_C_rb_ga1_gc5_3)) (?v_40 (- t_Goal_4 t_A_ra_ga6_gb1_1)) (?v_42 (- t_Goal_4 t_B_ra_rb_gb6_2)) (?v_44 (- t_Goal_4 t_C_rb_ga1_gc6_3)) (?v_45 (- t_Goal_4 t_A_ra_ga7_gb1_1)) (?v_47 (- t_Goal_4 t_B_ra_rb_gb7_2)) (?v_49 (- t_Goal_4 t_C_rb_ga1_gc7_3)) (?v_50 (- t_Goal_4 t_A_ra_ga8_gb1_1)) (?v_52 (- t_Goal_4 t_B_ra_rb_gb8_2)) (?v_0 (- t_Goal_4 t_A_ra_ga1_gb1_1)) (?v_1 (- t_Goal_4 t_B_ra_rb_gb1_2)) (?v_55 (- t_Goal_4 t_C_rb_ga1_gc8_3)) (?v_53 (- t_B_ra_rb_gb1_2 t_A_ra_ga1_gb1_1))) (let ((?v_13 (< ?v_53 5)) (?v_51 (- t_B_ra_rb_gb8_2 t_A_ra_ga1_gb1_1))) (let ((?v_14 (< ?v_51 5)) (?v_46 (- t_B_ra_rb_gb7_2 t_A_ra_ga1_gb1_1))) (let ((?v_15 (< ?v_46 5)) (?v_41 (- t_B_ra_rb_gb6_2 t_A_ra_ga1_gb1_1))) (let ((?v_16 (< ?v_41 5)) (?v_36 (- t_B_ra_rb_gb5_2 t_A_ra_ga1_gb1_1))) (let ((?v_17 (< ?v_36 5)) (?v_31 (- t_B_ra_rb_gb4_2 t_A_ra_ga1_gb1_1))) (let ((?v_18 (< ?v_31 5)) (?v_26 (- t_B_ra_rb_gb3_2 t_A_ra_ga1_gb1_1))) (let ((?v_19 (< ?v_26 5)) (?v_21 (- t_B_ra_rb_gb2_2 t_A_ra_ga1_gb1_1))) (let ((?v_20 (< ?v_21 5)) (?v_54 (- t_C_rb_ga1_gc8_3 t_B_ra_rb_gb1_2))) (let ((?v_2 (< ?v_54 4)) (?v_48 (- t_C_rb_ga1_gc7_3 t_B_ra_rb_gb1_2))) (let ((?v_3 (< ?v_48 4)) (?v_43 (- t_C_rb_ga1_gc6_3 t_B_ra_rb_gb1_2))) (let ((?v_4 (< ?v_43 4)) (?v_38 (- t_C_rb_ga1_gc5_3 t_B_ra_rb_gb1_2))) (let ((?v_5 (< ?v_38 4)) (?v_33 (- t_C_rb_ga1_gc4_3 t_B_ra_rb_gb1_2))) (let ((?v_6 (< ?v_33 4)) (?v_28 (- t_C_rb_ga1_gc3_3 t_B_ra_rb_gb1_2))) (let ((?v_7 (< ?v_28 4)) (?v_23 (- t_C_rb_ga1_gc2_3 t_B_ra_rb_gb1_2))) (let ((?v_8 (< ?v_23 4)) (?v_10 (- t_C_rb_ga1_gc1_3 t_B_ra_rb_gb1_2))) (let ((?v_9 (< ?v_10 4)) (?v_56 (- t_A_ra_ga8_gb1_1 t_A_ra_ga1_gb1_1))) (let ((?v_280 (< ?v_56 5)) (?v_279 (> ?v_56 5))) (let ((?v_133 (or ?v_280 ?v_279)) (?v_57 (- t_A_ra_ga7_gb1_1 t_A_ra_ga1_gb1_1))) (let ((?v_271 (< ?v_57 5)) (?v_270 (> ?v_57 5))) (let ((?v_134 (or ?v_271 ?v_270)) (?v_58 (- t_A_ra_ga6_gb1_1 t_A_ra_ga1_gb1_1))) (let ((?v_258 (< ?v_58 5)) (?v_257 (> ?v_58 5))) (let ((?v_135 (or ?v_258 ?v_257)) (?v_59 (- t_A_ra_ga5_gb1_1 t_A_ra_ga1_gb1_1))) (let ((?v_241 (< ?v_59 5)) (?v_240 (> ?v_59 5))) (let ((?v_136 (or ?v_241 ?v_240)) (?v_60 (- t_A_ra_ga4_gb1_1 t_A_ra_ga1_gb1_1))) (let ((?v_220 (< ?v_60 5)) (?v_219 (> ?v_60 5))) (let ((?v_137 (or ?v_220 ?v_219)) (?v_61 (- t_A_ra_ga3_gb1_1 t_A_ra_ga1_gb1_1))) (let ((?v_189 (< ?v_61 5)) (?v_188 (> ?v_61 5))) (let ((?v_138 (or ?v_189 ?v_188)) (?v_62 (- t_A_ra_ga2_gb1_1 t_A_ra_ga1_gb1_1))) (let ((?v_126 (< ?v_62 5)) (?v_125 (> ?v_62 5)) (?v_93 (< ?v_53 1)) (?v_63 (> ?v_53 1))) (let ((?v_139 (or ?v_93 ?v_63)) (?v_85 (< ?v_0 6)) (?v_64 (- t_A_ra_ga1_gb1_1 t_A_ra_ga8_gb1_1))) (let ((?v_154 (> ?v_64 5)) (?v_65 (- t_A_ra_ga1_gb1_1 t_A_ra_ga7_gb1_1))) (let ((?v_155 (> ?v_65 5)) (?v_66 (- t_A_ra_ga1_gb1_1 t_A_ra_ga6_gb1_1))) (let ((?v_156 (> ?v_66 5)) (?v_67 (- t_A_ra_ga1_gb1_1 t_A_ra_ga5_gb1_1))) (let ((?v_157 (> ?v_67 5)) (?v_68 (- t_A_ra_ga1_gb1_1 t_A_ra_ga4_gb1_1))) (let ((?v_158 (> ?v_68 5)) (?v_69 (- t_A_ra_ga1_gb1_1 t_A_ra_ga3_gb1_1))) (let ((?v_159 (> ?v_69 5)) (?v_70 (- t_A_ra_ga1_gb1_1 t_A_ra_ga2_gb1_1))) (let ((?v_117 (> ?v_70 5)) (?v_141 (- t_C_rb_ga1_gc8_3 t_A_ra_ga1_gb1_1))) (let ((?v_140 (< ?v_141 4)) (?v_143 (- t_C_rb_ga1_gc7_3 t_A_ra_ga1_gb1_1))) (let ((?v_142 (< ?v_143 4)) (?v_145 (- t_C_rb_ga1_gc6_3 t_A_ra_ga1_gb1_1))) (let ((?v_144 (< ?v_145 4)) (?v_147 (- t_C_rb_ga1_gc5_3 t_A_ra_ga1_gb1_1))) (let ((?v_146 (< ?v_147 4)) (?v_149 (- t_C_rb_ga1_gc4_3 t_A_ra_ga1_gb1_1))) (let ((?v_148 (< ?v_149 4)) (?v_151 (- t_C_rb_ga1_gc3_3 t_A_ra_ga1_gb1_1))) (let ((?v_150 (< ?v_151 4)) (?v_153 (- t_C_rb_ga1_gc2_3 t_A_ra_ga1_gb1_1))) (let ((?v_152 (< ?v_153 4)) (?v_115 (- t_C_rb_ga1_gc1_3 t_A_ra_ga1_gb1_1))) (let ((?v_116 (< ?v_115 4)) (?v_71 (- t_B_ra_rb_gb8_2 t_B_ra_rb_gb1_2))) (let ((?v_282 (< ?v_71 4)) (?v_281 (> ?v_71 4))) (let ((?v_86 (or ?v_282 ?v_281)) (?v_72 (- t_B_ra_rb_gb7_2 t_B_ra_rb_gb1_2))) (let ((?v_275 (< ?v_72 4)) (?v_274 (> ?v_72 4))) (let ((?v_87 (or ?v_275 ?v_274)) (?v_73 (- t_B_ra_rb_gb6_2 t_B_ra_rb_gb1_2))) (let ((?v_264 (< ?v_73 4)) (?v_263 (> ?v_73 4))) (let ((?v_88 (or ?v_264 ?v_263)) (?v_74 (- t_B_ra_rb_gb5_2 t_B_ra_rb_gb1_2))) (let ((?v_249 (< ?v_74 4)) (?v_248 (> ?v_74 4))) (let ((?v_89 (or ?v_249 ?v_248)) (?v_75 (- t_B_ra_rb_gb4_2 t_B_ra_rb_gb1_2))) (let ((?v_230 (< ?v_75 4)) (?v_229 (> ?v_75 4))) (let ((?v_90 (or ?v_230 ?v_229)) (?v_76 (- t_B_ra_rb_gb3_2 t_B_ra_rb_gb1_2))) (let ((?v_207 (< ?v_76 4)) (?v_206 (> ?v_76 4))) (let ((?v_91 (or ?v_207 ?v_206)) (?v_77 (- t_B_ra_rb_gb2_2 t_B_ra_rb_gb1_2))) (let ((?v_167 (< ?v_77 4)) (?v_166 (> ?v_77 4))) (let ((?v_92 (or ?v_167 ?v_166)) (?v_78 (- t_B_ra_rb_gb1_2 t_B_ra_rb_gb8_2))) (let ((?v_108 (> ?v_78 4)) (?v_79 (- t_B_ra_rb_gb1_2 t_B_ra_rb_gb7_2))) (let ((?v_109 (> ?v_79 4)) (?v_80 (- t_B_ra_rb_gb1_2 t_B_ra_rb_gb6_2))) (let ((?v_110 (> ?v_80 4)) (?v_81 (- t_B_ra_rb_gb1_2 t_B_ra_rb_gb5_2))) (let ((?v_111 (> ?v_81 4)) (?v_82 (- t_B_ra_rb_gb1_2 t_B_ra_rb_gb4_2))) (let ((?v_112 (> ?v_82 4)) (?v_83 (- t_B_ra_rb_gb1_2 t_B_ra_rb_gb3_2))) (let ((?v_113 (> ?v_83 4)) (?v_84 (- t_B_ra_rb_gb1_2 t_B_ra_rb_gb2_2))) (let ((?v_114 (> ?v_84 4)) (?v_95 (- t_B_ra_rb_gb1_2 t_A_ra_ga8_gb1_1))) (let ((?v_94 (> ?v_95 1)) (?v_97 (- t_B_ra_rb_gb1_2 t_A_ra_ga7_gb1_1))) (let ((?v_96 (> ?v_97 1)) (?v_99 (- t_B_ra_rb_gb1_2 t_A_ra_ga6_gb1_1))) (let ((?v_98 (> ?v_99 1)) (?v_101 (- t_B_ra_rb_gb1_2 t_A_ra_ga5_gb1_1))) (let ((?v_100 (> ?v_101 1)) (?v_103 (- t_B_ra_rb_gb1_2 t_A_ra_ga4_gb1_1))) (let ((?v_102 (> ?v_103 1)) (?v_105 (- t_B_ra_rb_gb1_2 t_A_ra_ga3_gb1_1))) (let ((?v_104 (> ?v_105 1)) (?v_107 (- t_B_ra_rb_gb1_2 t_A_ra_ga2_gb1_1))) (let ((?v_106 (> ?v_107 1)) (?v_174 (or ?v_63 ?v_93)) (?v_278 (< ?v_95 1))) (let ((?v_175 (or ?v_94 ?v_278)) (?v_269 (< ?v_97 1))) (let ((?v_176 (or ?v_96 ?v_269)) (?v_256 (< ?v_99 1))) (let ((?v_177 (or ?v_98 ?v_256)) (?v_239 (< ?v_101 1))) (let ((?v_178 (or ?v_100 ?v_239)) (?v_218 (< ?v_103 1))) (let ((?v_179 (or ?v_102 ?v_218)) (?v_187 (< ?v_105 1))) (let ((?v_180 (or ?v_104 ?v_187)) (?v_124 (< ?v_107 1)) (?v_118 (- t_A_ra_ga8_gb1_1 t_A_ra_ga2_gb1_1)) (?v_119 (- t_A_ra_ga7_gb1_1 t_A_ra_ga2_gb1_1)) (?v_120 (- t_A_ra_ga6_gb1_1 t_A_ra_ga2_gb1_1)) (?v_121 (- t_A_ra_ga5_gb1_1 t_A_ra_ga2_gb1_1)) (?v_122 (- t_A_ra_ga4_gb1_1 t_A_ra_ga2_gb1_1)) (?v_123 (- t_A_ra_ga3_gb1_1 t_A_ra_ga2_gb1_1)) (?v_127 (- t_A_ra_ga2_gb1_1 t_A_ra_ga8_gb1_1)) (?v_128 (- t_A_ra_ga2_gb1_1 t_A_ra_ga7_gb1_1)) (?v_129 (- t_A_ra_ga2_gb1_1 t_A_ra_ga6_gb1_1)) (?v_130 (- t_A_ra_ga2_gb1_1 t_A_ra_ga5_gb1_1)) (?v_131 (- t_A_ra_ga2_gb1_1 t_A_ra_ga4_gb1_1)) (?v_132 (- t_A_ra_ga2_gb1_1 t_A_ra_ga3_gb1_1)) (?v_195 (or ?v_140 (> ?v_141 4))) (?v_277 (> ?v_143 4))) (let ((?v_196 (or ?v_142 ?v_277)) (?v_267 (> ?v_145 4))) (let ((?v_197 (or ?v_144 ?v_267)) (?v_253 (> ?v_147 4))) (let ((?v_198 (or ?v_146 ?v_253)) (?v_235 (> ?v_149 4))) (let ((?v_199 (or ?v_148 ?v_235)) (?v_213 (> ?v_151 4))) (let ((?v_200 (or ?v_150 ?v_213)) (?v_181 (> ?v_153 4)) (?v_160 (- t_B_ra_rb_gb8_2 t_B_ra_rb_gb2_2)) (?v_161 (- t_B_ra_rb_gb7_2 t_B_ra_rb_gb2_2)) (?v_162 (- t_B_ra_rb_gb6_2 t_B_ra_rb_gb2_2)) (?v_163 (- t_B_ra_rb_gb5_2 t_B_ra_rb_gb2_2)) (?v_164 (- t_B_ra_rb_gb4_2 t_B_ra_rb_gb2_2)) (?v_165 (- t_B_ra_rb_gb3_2 t_B_ra_rb_gb2_2)) (?v_168 (- t_B_ra_rb_gb2_2 t_B_ra_rb_gb8_2)) (?v_169 (- t_B_ra_rb_gb2_2 t_B_ra_rb_gb7_2)) (?v_170 (- t_B_ra_rb_gb2_2 t_B_ra_rb_gb6_2)) (?v_171 (- t_B_ra_rb_gb2_2 t_B_ra_rb_gb5_2)) (?v_172 (- t_B_ra_rb_gb2_2 t_B_ra_rb_gb4_2)) (?v_173 (- t_B_ra_rb_gb2_2 t_B_ra_rb_gb3_2)) (?v_182 (- t_A_ra_ga8_gb1_1 t_A_ra_ga3_gb1_1)) (?v_183 (- t_A_ra_ga7_gb1_1 t_A_ra_ga3_gb1_1)) (?v_184 (- t_A_ra_ga6_gb1_1 t_A_ra_ga3_gb1_1)) (?v_185 (- t_A_ra_ga5_gb1_1 t_A_ra_ga3_gb1_1)) (?v_186 (- t_A_ra_ga4_gb1_1 t_A_ra_ga3_gb1_1)) (?v_190 (- t_A_ra_ga3_gb1_1 t_A_ra_ga8_gb1_1)) (?v_191 (- t_A_ra_ga3_gb1_1 t_A_ra_ga7_gb1_1)) (?v_192 (- t_A_ra_ga3_gb1_1 t_A_ra_ga6_gb1_1)) (?v_193 (- t_A_ra_ga3_gb1_1 t_A_ra_ga5_gb1_1)) (?v_194 (- t_A_ra_ga3_gb1_1 t_A_ra_ga4_gb1_1)) (?v_201 (- t_B_ra_rb_gb8_2 t_B_ra_rb_gb3_2)) (?v_202 (- t_B_ra_rb_gb7_2 t_B_ra_rb_gb3_2)) (?v_203 (- t_B_ra_rb_gb6_2 t_B_ra_rb_gb3_2)) (?v_204 (- t_B_ra_rb_gb5_2 t_B_ra_rb_gb3_2)) (?v_205 (- t_B_ra_rb_gb4_2 t_B_ra_rb_gb3_2)) (?v_208 (- t_B_ra_rb_gb3_2 t_B_ra_rb_gb8_2)) (?v_209 (- t_B_ra_rb_gb3_2 t_B_ra_rb_gb7_2)) (?v_210 (- t_B_ra_rb_gb3_2 t_B_ra_rb_gb6_2)) (?v_211 (- t_B_ra_rb_gb3_2 t_B_ra_rb_gb5_2)) (?v_212 (- t_B_ra_rb_gb3_2 t_B_ra_rb_gb4_2)) (?v_214 (- t_A_ra_ga8_gb1_1 t_A_ra_ga4_gb1_1)) (?v_215 (- t_A_ra_ga7_gb1_1 t_A_ra_ga4_gb1_1)) (?v_216 (- t_A_ra_ga6_gb1_1 t_A_ra_ga4_gb1_1)) (?v_217 (- t_A_ra_ga5_gb1_1 t_A_ra_ga4_gb1_1)) (?v_221 (- t_A_ra_ga4_gb1_1 t_A_ra_ga8_gb1_1)) (?v_222 (- t_A_ra_ga4_gb1_1 t_A_ra_ga7_gb1_1)) (?v_223 (- t_A_ra_ga4_gb1_1 t_A_ra_ga6_gb1_1)) (?v_224 (- t_A_ra_ga4_gb1_1 t_A_ra_ga5_gb1_1)) (?v_225 (- t_B_ra_rb_gb8_2 t_B_ra_rb_gb4_2)) (?v_226 (- t_B_ra_rb_gb7_2 t_B_ra_rb_gb4_2)) (?v_227 (- t_B_ra_rb_gb6_2 t_B_ra_rb_gb4_2)) (?v_228 (- t_B_ra_rb_gb5_2 t_B_ra_rb_gb4_2)) (?v_231 (- t_B_ra_rb_gb4_2 t_B_ra_rb_gb8_2)) (?v_232 (- t_B_ra_rb_gb4_2 t_B_ra_rb_gb7_2)) (?v_233 (- t_B_ra_rb_gb4_2 t_B_ra_rb_gb6_2)) (?v_234 (- t_B_ra_rb_gb4_2 t_B_ra_rb_gb5_2)) (?v_236 (- t_A_ra_ga8_gb1_1 t_A_ra_ga5_gb1_1)) (?v_237 (- t_A_ra_ga7_gb1_1 t_A_ra_ga5_gb1_1)) (?v_238 (- t_A_ra_ga6_gb1_1 t_A_ra_ga5_gb1_1)) (?v_242 (- t_A_ra_ga5_gb1_1 t_A_ra_ga8_gb1_1)) (?v_243 (- t_A_ra_ga5_gb1_1 t_A_ra_ga7_gb1_1)) (?v_244 (- t_A_ra_ga5_gb1_1 t_A_ra_ga6_gb1_1)) (?v_245 (- t_B_ra_rb_gb8_2 t_B_ra_rb_gb5_2)) (?v_246 (- t_B_ra_rb_gb7_2 t_B_ra_rb_gb5_2)) (?v_247 (- t_B_ra_rb_gb6_2 t_B_ra_rb_gb5_2)) (?v_250 (- t_B_ra_rb_gb5_2 t_B_ra_rb_gb8_2)) (?v_251 (- t_B_ra_rb_gb5_2 t_B_ra_rb_gb7_2)) (?v_252 (- t_B_ra_rb_gb5_2 t_B_ra_rb_gb6_2)) (?v_254 (- t_A_ra_ga8_gb1_1 t_A_ra_ga6_gb1_1)) (?v_255 (- t_A_ra_ga7_gb1_1 t_A_ra_ga6_gb1_1)) (?v_259 (- t_A_ra_ga6_gb1_1 t_A_ra_ga8_gb1_1)) (?v_260 (- t_A_ra_ga6_gb1_1 t_A_ra_ga7_gb1_1)) (?v_261 (- t_B_ra_rb_gb8_2 t_B_ra_rb_gb6_2)) (?v_262 (- t_B_ra_rb_gb7_2 t_B_ra_rb_gb6_2)) (?v_265 (- t_B_ra_rb_gb6_2 t_B_ra_rb_gb8_2)) (?v_266 (- t_B_ra_rb_gb6_2 t_B_ra_rb_gb7_2)) (?v_268 (- t_A_ra_ga8_gb1_1 t_A_ra_ga7_gb1_1)) (?v_272 (- t_A_ra_ga7_gb1_1 t_A_ra_ga8_gb1_1)) (?v_273 (- t_B_ra_rb_gb8_2 t_B_ra_rb_gb7_2)) (?v_276 (- t_B_ra_rb_gb7_2 t_B_ra_rb_gb8_2))) (and (= St_spy_variable (+ 1 t_Init_0)) (>= t_Goal_4 t_Init_0) (>= (- t_C_rb_ga1_gc1_3 t_Init_0) 0) (>= ?v_11 1) (>= (- t_A_ra_ga2_gb1_1 t_Init_0) 0) (>= ?v_12 5) (>= (- t_B_ra_rb_gb2_2 t_Init_0) 0) (>= ?v_22 4) (>= (- t_C_rb_ga1_gc2_3 t_Init_0) 0) (>= ?v_24 1) (>= (- t_A_ra_ga3_gb1_1 t_Init_0) 0) (>= ?v_25 5) (>= (- t_B_ra_rb_gb3_2 t_Init_0) 0) (>= ?v_27 4) (>= (- t_C_rb_ga1_gc3_3 t_Init_0) 0) (>= ?v_29 1) (>= (- t_A_ra_ga4_gb1_1 t_Init_0) 0) (>= ?v_30 5) (>= (- t_B_ra_rb_gb4_2 t_Init_0) 0) (>= ?v_32 4) (>= (- t_C_rb_ga1_gc4_3 t_Init_0) 0) (>= ?v_34 1) (>= (- t_A_ra_ga5_gb1_1 t_Init_0) 0) (>= ?v_35 5) (>= (- t_B_ra_rb_gb5_2 t_Init_0) 0) (>= ?v_37 4) (>= (- t_C_rb_ga1_gc5_3 t_Init_0) 0) (>= ?v_39 1) (>= (- t_A_ra_ga6_gb1_1 t_Init_0) 0) (>= ?v_40 5) (>= (- t_B_ra_rb_gb6_2 t_Init_0) 0) (>= ?v_42 4) (>= (- t_C_rb_ga1_gc6_3 t_Init_0) 0) (>= ?v_44 1) (>= (- t_A_ra_ga7_gb1_1 t_Init_0) 0) (>= ?v_45 5) (>= (- t_B_ra_rb_gb7_2 t_Init_0) 0) (>= ?v_47 4) (>= (- t_C_rb_ga1_gc7_3 t_Init_0) 0) (>= ?v_49 1) (>= (- t_A_ra_ga8_gb1_1 t_Init_0) 0) (>= ?v_50 5) (>= (- t_B_ra_rb_gb8_2 t_Init_0) 0) (>= ?v_52 4) (>= (- t_A_ra_ga1_gb1_1 t_Init_0) 0) (>= ?v_0 5) (>= (- t_B_ra_rb_gb1_2 t_Init_0) 0) (>= ?v_1 4) (>= (- t_C_rb_ga1_gc8_3 t_Init_0) 0) (>= ?v_55 1) ?v_13 ?v_14 ?v_15 ?v_16 ?v_17 ?v_18 ?v_19 ?v_20 (>= ?v_0 6) ?v_2 ?v_3 ?v_4 ?v_5 ?v_6 ?v_7 ?v_8 ?v_9 (>= ?v_1 5) ?v_2 ?v_3 ?v_4 ?v_5 ?v_6 ?v_7 ?v_8 ?v_9 ?v_9 (>= ?v_10 0) (>= ?v_11 2) (>= ?v_12 6) ?v_13 ?v_14 ?v_15 ?v_16 ?v_17 ?v_18 ?v_19 ?v_20 ?v_20 (>= ?v_21 0) (>= ?v_22 5) ?v_2 ?v_3 ?v_4 ?v_5 ?v_6 ?v_7 ?v_8 ?v_8 (>= ?v_23 0) (>= ?v_24 2) (>= ?v_25 6) ?v_13 ?v_14 ?v_15 ?v_16 ?v_17 ?v_18 ?v_19 ?v_19 (>= ?v_26 0) (>= ?v_27 5) ?v_2 ?v_3 ?v_4 ?v_5 ?v_6 ?v_7 ?v_7 (>= ?v_28 0) (>= ?v_29 2) (>= ?v_30 6) ?v_13 ?v_14 ?v_15 ?v_16 ?v_17 ?v_18 ?v_18 (>= ?v_31 0) (>= ?v_32 5) ?v_2 ?v_3 ?v_4 ?v_5 ?v_6 ?v_6 (>= ?v_33 0) (>= ?v_34 2) (>= ?v_35 6) ?v_13 ?v_14 ?v_15 ?v_16 ?v_17 ?v_17 (>= ?v_36 0) (>= ?v_37 5) ?v_2 ?v_3 ?v_4 ?v_5 ?v_5 (>= ?v_38 0) (>= ?v_39 2) (>= ?v_40 6) ?v_13 ?v_14 ?v_15 ?v_16 ?v_16 (>= ?v_41 0) (>= ?v_42 5) ?v_2 ?v_3 ?v_4 ?v_4 (>= ?v_43 0) (>= ?v_44 2) (>= ?v_45 6) ?v_13 ?v_14 ?v_15 ?v_15 (>= ?v_46 0) (>= ?v_47 5) ?v_2 ?v_3 ?v_3 (>= ?v_48 0) (>= ?v_49 2) (>= ?v_50 6) ?v_13 ?v_14 ?v_14 (>= ?v_51 0) (>= ?v_52 5) ?v_13 (>= ?v_53 0) ?v_2 (>= ?v_54 0) (>= ?v_55 2) ?v_133 ?v_134 ?v_135 ?v_136 ?v_137 ?v_138 (or ?v_126 ?v_125) ?v_139 (or ?v_85 ?v_63) (or ?v_154 (< ?v_64 5)) (or ?v_155 (< ?v_65 5)) (or ?v_156 (< ?v_66 5)) (or ?v_157 (< ?v_67 5)) (or ?v_158 (< ?v_68 5)) (or ?v_159 (< ?v_69 5)) (or ?v_117 (< ?v_70 5)) (or ?v_140 (< ?v_55 2)) (or ?v_142 (< ?v_49 2)) (or ?v_144 (< ?v_44 2)) (or ?v_146 (< ?v_39 2)) (or ?v_148 (< ?v_34 2)) (or ?v_150 (< ?v_29 2)) (or ?v_152 (< ?v_24 2)) (or ?v_116 (< ?v_11 2)) ?v_86 ?v_87 ?v_88 ?v_89 ?v_90 ?v_91 ?v_92 (or ?v_108 (< ?v_78 4)) (or ?v_109 (< ?v_79 4)) (or ?v_110 (< ?v_80 4)) (or ?v_111 (< ?v_81 4)) (or ?v_112 (< ?v_82 4)) (or ?v_113 (< ?v_83 4)) (or ?v_114 (< ?v_84 4)) (or ?v_63 ?v_85) (or ?v_94 (< ?v_50 6)) (or ?v_96 (< ?v_45 6)) (or ?v_98 (< ?v_40 6)) (or ?v_100 (< ?v_35 6)) (or ?v_102 (< ?v_30 6)) (or ?v_104 (< ?v_25 6)) (or ?v_106 (< ?v_12 6)) ?v_86 ?v_87 ?v_88 ?v_89 ?v_90 ?v_91 ?v_92 ?v_174 ?v_175 ?v_176 ?v_177 ?v_178 ?v_179 ?v_180 (or ?v_106 ?v_124) (or ?v_108 (< (- t_C_rb_ga1_gc1_3 t_B_ra_rb_gb8_2) 4)) (or ?v_109 (< (- t_C_rb_ga1_gc1_3 t_B_ra_rb_gb7_2) 4)) (or ?v_110 (< (- t_C_rb_ga1_gc1_3 t_B_ra_rb_gb6_2) 4)) (or ?v_111 (< (- t_C_rb_ga1_gc1_3 t_B_ra_rb_gb5_2) 4)) (or ?v_112 (< (- t_C_rb_ga1_gc1_3 t_B_ra_rb_gb4_2) 4)) (or ?v_113 (< (- t_C_rb_ga1_gc1_3 t_B_ra_rb_gb3_2) 4)) (or ?v_114 (< (- t_C_rb_ga1_gc1_3 t_B_ra_rb_gb2_2) 4)) (or (> ?v_115 4) ?v_116) (or (< ?v_107 5) ?v_117) (or (< (- t_B_ra_rb_gb8_2 t_A_ra_ga2_gb1_1) 5) ?v_117) (or (< ?v_118 5) (> ?v_118 5)) (or (< (- t_B_ra_rb_gb7_2 t_A_ra_ga2_gb1_1) 5) ?v_117) (or (< ?v_119 5) (> ?v_119 5)) (or (< (- t_B_ra_rb_gb6_2 t_A_ra_ga2_gb1_1) 5) ?v_117) (or (< ?v_120 5) (> ?v_120 5)) (or (< (- t_B_ra_rb_gb5_2 t_A_ra_ga2_gb1_1) 5) ?v_117) (or (< ?v_121 5) (> ?v_121 5)) (or (< (- t_B_ra_rb_gb4_2 t_A_ra_ga2_gb1_1) 5) ?v_117) (or (< ?v_122 5) (> ?v_122 5)) (or (< (- t_B_ra_rb_gb3_2 t_A_ra_ga2_gb1_1) 5) ?v_117) (or (< ?v_123 5) (> ?v_123 5)) (or (< (- t_B_ra_rb_gb2_2 t_A_ra_ga2_gb1_1) 5) ?v_117) (or ?v_124 ?v_106) (or ?v_125 ?v_126) (or (> ?v_127 5) (< ?v_127 5)) (or (> ?v_128 5) (< ?v_128 5)) (or (> ?v_129 5) (< ?v_129 5)) (or (> ?v_130 5) (< ?v_130 5)) (or (> ?v_131 5) (< ?v_131 5)) (or (> ?v_132 5) (< ?v_132 5)) ?v_133 ?v_134 ?v_135 ?v_136 ?v_137 ?v_138 ?v_139 ?v_195 ?v_196 ?v_197 ?v_198 ?v_199 ?v_200 (or ?v_152 ?v_181) (or ?v_154 (< (- t_B_ra_rb_gb2_2 t_A_ra_ga8_gb1_1) 5)) (or ?v_155 (< (- t_B_ra_rb_gb2_2 t_A_ra_ga7_gb1_1) 5)) (or ?v_156 (< (- t_B_ra_rb_gb2_2 t_A_ra_ga6_gb1_1) 5)) (or ?v_157 (< (- t_B_ra_rb_gb2_2 t_A_ra_ga5_gb1_1) 5)) (or ?v_158 (< (- t_B_ra_rb_gb2_2 t_A_ra_ga4_gb1_1) 5)) (or ?v_159 (< (- t_B_ra_rb_gb2_2 t_A_ra_ga3_gb1_1) 5)) (or (< (- t_C_rb_ga1_gc8_3 t_B_ra_rb_gb2_2) 4) ?v_114) (or (< ?v_160 4) (> ?v_160 4)) (or (< (- t_C_rb_ga1_gc7_3 t_B_ra_rb_gb2_2) 4) ?v_114) (or (< ?v_161 4) (> ?v_161 4)) (or (< (- t_C_rb_ga1_gc6_3 t_B_ra_rb_gb2_2) 4) ?v_114) (or (< ?v_162 4) (> ?v_162 4)) (or (< (- t_C_rb_ga1_gc5_3 t_B_ra_rb_gb2_2) 4) ?v_114) (or (< ?v_163 4) (> ?v_163 4)) (or (< (- t_C_rb_ga1_gc4_3 t_B_ra_rb_gb2_2) 4) ?v_114) (or (< ?v_164 4) (> ?v_164 4)) (or (< (- t_C_rb_ga1_gc3_3 t_B_ra_rb_gb2_2) 4) ?v_114) (or (< ?v_165 4) (> ?v_165 4)) (or (< (- t_C_rb_ga1_gc2_3 t_B_ra_rb_gb2_2) 4) ?v_114) (or ?v_166 ?v_167) (or (> ?v_168 4) (< ?v_168 4)) (or (> ?v_169 4) (< ?v_169 4)) (or (> ?v_170 4) (< ?v_170 4)) (or (> ?v_171 4) (< ?v_171 4)) (or (> ?v_172 4) (< ?v_172 4)) (or (> ?v_173 4) (< ?v_173 4)) ?v_86 ?v_87 ?v_88 ?v_89 ?v_90 ?v_91 ?v_174 ?v_175 ?v_176 ?v_177 ?v_178 ?v_179 ?v_180 (or ?v_108 (< (- t_C_rb_ga1_gc2_3 t_B_ra_rb_gb8_2) 4)) (or ?v_109 (< (- t_C_rb_ga1_gc2_3 t_B_ra_rb_gb7_2) 4)) (or ?v_110 (< (- t_C_rb_ga1_gc2_3 t_B_ra_rb_gb6_2) 4)) (or ?v_111 (< (- t_C_rb_ga1_gc2_3 t_B_ra_rb_gb5_2) 4)) (or ?v_112 (< (- t_C_rb_ga1_gc2_3 t_B_ra_rb_gb4_2) 4)) (or ?v_113 (< (- t_C_rb_ga1_gc2_3 t_B_ra_rb_gb3_2) 4)) (or ?v_181 ?v_152) (or (< ?v_105 5) ?v_159) (or (< (- t_B_ra_rb_gb8_2 t_A_ra_ga3_gb1_1) 5) ?v_159) (or (< ?v_182 5) (> ?v_182 5)) (or (< (- t_B_ra_rb_gb7_2 t_A_ra_ga3_gb1_1) 5) ?v_159) (or (< ?v_183 5) (> ?v_183 5)) (or (< (- t_B_ra_rb_gb6_2 t_A_ra_ga3_gb1_1) 5) ?v_159) (or (< ?v_184 5) (> ?v_184 5)) (or (< (- t_B_ra_rb_gb5_2 t_A_ra_ga3_gb1_1) 5) ?v_159) (or (< ?v_185 5) (> ?v_185 5)) (or (< (- t_B_ra_rb_gb4_2 t_A_ra_ga3_gb1_1) 5) ?v_159) (or (< ?v_186 5) (> ?v_186 5)) (or (< (- t_B_ra_rb_gb3_2 t_A_ra_ga3_gb1_1) 5) ?v_159) (or ?v_187 ?v_104) (or ?v_188 ?v_189) (or (> ?v_190 5) (< ?v_190 5)) (or (> ?v_191 5) (< ?v_191 5)) (or (> ?v_192 5) (< ?v_192 5)) (or (> ?v_193 5) (< ?v_193 5)) (or (> ?v_194 5) (< ?v_194 5)) ?v_133 ?v_134 ?v_135 ?v_136 ?v_137 ?v_139 ?v_195 ?v_196 ?v_197 ?v_198 ?v_199 ?v_200 (or ?v_154 (< (- t_B_ra_rb_gb3_2 t_A_ra_ga8_gb1_1) 5)) (or ?v_155 (< (- t_B_ra_rb_gb3_2 t_A_ra_ga7_gb1_1) 5)) (or ?v_156 (< (- t_B_ra_rb_gb3_2 t_A_ra_ga6_gb1_1) 5)) (or ?v_157 (< (- t_B_ra_rb_gb3_2 t_A_ra_ga5_gb1_1) 5)) (or ?v_158 (< (- t_B_ra_rb_gb3_2 t_A_ra_ga4_gb1_1) 5)) (or (< (- t_C_rb_ga1_gc8_3 t_B_ra_rb_gb3_2) 4) ?v_113) (or (< ?v_201 4) (> ?v_201 4)) (or (< (- t_C_rb_ga1_gc7_3 t_B_ra_rb_gb3_2) 4) ?v_113) (or (< ?v_202 4) (> ?v_202 4)) (or (< (- t_C_rb_ga1_gc6_3 t_B_ra_rb_gb3_2) 4) ?v_113) (or (< ?v_203 4) (> ?v_203 4)) (or (< (- t_C_rb_ga1_gc5_3 t_B_ra_rb_gb3_2) 4) ?v_113) (or (< ?v_204 4) (> ?v_204 4)) (or (< (- t_C_rb_ga1_gc4_3 t_B_ra_rb_gb3_2) 4) ?v_113) (or (< ?v_205 4) (> ?v_205 4)) (or (< (- t_C_rb_ga1_gc3_3 t_B_ra_rb_gb3_2) 4) ?v_113) (or ?v_206 ?v_207) (or (> ?v_208 4) (< ?v_208 4)) (or (> ?v_209 4) (< ?v_209 4)) (or (> ?v_210 4) (< ?v_210 4)) (or (> ?v_211 4) (< ?v_211 4)) (or (> ?v_212 4) (< ?v_212 4)) ?v_86 ?v_87 ?v_88 ?v_89 ?v_90 ?v_174 ?v_175 ?v_176 ?v_177 ?v_178 ?v_179 (or ?v_108 (< (- t_C_rb_ga1_gc3_3 t_B_ra_rb_gb8_2) 4)) (or ?v_109 (< (- t_C_rb_ga1_gc3_3 t_B_ra_rb_gb7_2) 4)) (or ?v_110 (< (- t_C_rb_ga1_gc3_3 t_B_ra_rb_gb6_2) 4)) (or ?v_111 (< (- t_C_rb_ga1_gc3_3 t_B_ra_rb_gb5_2) 4)) (or ?v_112 (< (- t_C_rb_ga1_gc3_3 t_B_ra_rb_gb4_2) 4)) (or ?v_213 ?v_150) (or (< ?v_103 5) ?v_158) (or (< (- t_B_ra_rb_gb8_2 t_A_ra_ga4_gb1_1) 5) ?v_158) (or (< ?v_214 5) (> ?v_214 5)) (or (< (- t_B_ra_rb_gb7_2 t_A_ra_ga4_gb1_1) 5) ?v_158) (or (< ?v_215 5) (> ?v_215 5)) (or (< (- t_B_ra_rb_gb6_2 t_A_ra_ga4_gb1_1) 5) ?v_158) (or (< ?v_216 5) (> ?v_216 5)) (or (< (- t_B_ra_rb_gb5_2 t_A_ra_ga4_gb1_1) 5) ?v_158) (or (< ?v_217 5) (> ?v_217 5)) (or (< (- t_B_ra_rb_gb4_2 t_A_ra_ga4_gb1_1) 5) ?v_158) (or ?v_218 ?v_102) (or ?v_219 ?v_220) (or (> ?v_221 5) (< ?v_221 5)) (or (> ?v_222 5) (< ?v_222 5)) (or (> ?v_223 5) (< ?v_223 5)) (or (> ?v_224 5) (< ?v_224 5)) ?v_133 ?v_134 ?v_135 ?v_136 ?v_139 ?v_195 ?v_196 ?v_197 ?v_198 ?v_199 (or ?v_154 (< (- t_B_ra_rb_gb4_2 t_A_ra_ga8_gb1_1) 5)) (or ?v_155 (< (- t_B_ra_rb_gb4_2 t_A_ra_ga7_gb1_1) 5)) (or ?v_156 (< (- t_B_ra_rb_gb4_2 t_A_ra_ga6_gb1_1) 5)) (or ?v_157 (< (- t_B_ra_rb_gb4_2 t_A_ra_ga5_gb1_1) 5)) (or (< (- t_C_rb_ga1_gc8_3 t_B_ra_rb_gb4_2) 4) ?v_112) (or (< ?v_225 4) (> ?v_225 4)) (or (< (- t_C_rb_ga1_gc7_3 t_B_ra_rb_gb4_2) 4) ?v_112) (or (< ?v_226 4) (> ?v_226 4)) (or (< (- t_C_rb_ga1_gc6_3 t_B_ra_rb_gb4_2) 4) ?v_112) (or (< ?v_227 4) (> ?v_227 4)) (or (< (- t_C_rb_ga1_gc5_3 t_B_ra_rb_gb4_2) 4) ?v_112) (or (< ?v_228 4) (> ?v_228 4)) (or (< (- t_C_rb_ga1_gc4_3 t_B_ra_rb_gb4_2) 4) ?v_112) (or ?v_229 ?v_230) (or (> ?v_231 4) (< ?v_231 4)) (or (> ?v_232 4) (< ?v_232 4)) (or (> ?v_233 4) (< ?v_233 4)) (or (> ?v_234 4) (< ?v_234 4)) ?v_86 ?v_87 ?v_88 ?v_89 ?v_174 ?v_175 ?v_176 ?v_177 ?v_178 (or ?v_108 (< (- t_C_rb_ga1_gc4_3 t_B_ra_rb_gb8_2) 4)) (or ?v_109 (< (- t_C_rb_ga1_gc4_3 t_B_ra_rb_gb7_2) 4)) (or ?v_110 (< (- t_C_rb_ga1_gc4_3 t_B_ra_rb_gb6_2) 4)) (or ?v_111 (< (- t_C_rb_ga1_gc4_3 t_B_ra_rb_gb5_2) 4)) (or ?v_235 ?v_148) (or (< ?v_101 5) ?v_157) (or (< (- t_B_ra_rb_gb8_2 t_A_ra_ga5_gb1_1) 5) ?v_157) (or (< ?v_236 5) (> ?v_236 5)) (or (< (- t_B_ra_rb_gb7_2 t_A_ra_ga5_gb1_1) 5) ?v_157) (or (< ?v_237 5) (> ?v_237 5)) (or (< (- t_B_ra_rb_gb6_2 t_A_ra_ga5_gb1_1) 5) ?v_157) (or (< ?v_238 5) (> ?v_238 5)) (or (< (- t_B_ra_rb_gb5_2 t_A_ra_ga5_gb1_1) 5) ?v_157) (or ?v_239 ?v_100) (or ?v_240 ?v_241) (or (> ?v_242 5) (< ?v_242 5)) (or (> ?v_243 5) (< ?v_243 5)) (or (> ?v_244 5) (< ?v_244 5)) ?v_133 ?v_134 ?v_135 ?v_139 ?v_195 ?v_196 ?v_197 ?v_198 (or ?v_154 (< (- t_B_ra_rb_gb5_2 t_A_ra_ga8_gb1_1) 5)) (or ?v_155 (< (- t_B_ra_rb_gb5_2 t_A_ra_ga7_gb1_1) 5)) (or ?v_156 (< (- t_B_ra_rb_gb5_2 t_A_ra_ga6_gb1_1) 5)) (or (< (- t_C_rb_ga1_gc8_3 t_B_ra_rb_gb5_2) 4) ?v_111) (or (< ?v_245 4) (> ?v_245 4)) (or (< (- t_C_rb_ga1_gc7_3 t_B_ra_rb_gb5_2) 4) ?v_111) (or (< ?v_246 4) (> ?v_246 4)) (or (< (- t_C_rb_ga1_gc6_3 t_B_ra_rb_gb5_2) 4) ?v_111) (or (< ?v_247 4) (> ?v_247 4)) (or (< (- t_C_rb_ga1_gc5_3 t_B_ra_rb_gb5_2) 4) ?v_111) (or ?v_248 ?v_249) (or (> ?v_250 4) (< ?v_250 4)) (or (> ?v_251 4) (< ?v_251 4)) (or (> ?v_252 4) (< ?v_252 4)) ?v_86 ?v_87 ?v_88 ?v_174 ?v_175 ?v_176 ?v_177 (or ?v_108 (< (- t_C_rb_ga1_gc5_3 t_B_ra_rb_gb8_2) 4)) (or ?v_109 (< (- t_C_rb_ga1_gc5_3 t_B_ra_rb_gb7_2) 4)) (or ?v_110 (< (- t_C_rb_ga1_gc5_3 t_B_ra_rb_gb6_2) 4)) (or ?v_253 ?v_146) (or (< ?v_99 5) ?v_156) (or (< (- t_B_ra_rb_gb8_2 t_A_ra_ga6_gb1_1) 5) ?v_156) (or (< ?v_254 5) (> ?v_254 5)) (or (< (- t_B_ra_rb_gb7_2 t_A_ra_ga6_gb1_1) 5) ?v_156) (or (< ?v_255 5) (> ?v_255 5)) (or (< (- t_B_ra_rb_gb6_2 t_A_ra_ga6_gb1_1) 5) ?v_156) (or ?v_256 ?v_98) (or ?v_257 ?v_258) (or (> ?v_259 5) (< ?v_259 5)) (or (> ?v_260 5) (< ?v_260 5)) ?v_133 ?v_134 ?v_139 ?v_195 ?v_196 ?v_197 (or ?v_154 (< (- t_B_ra_rb_gb6_2 t_A_ra_ga8_gb1_1) 5)) (or ?v_155 (< (- t_B_ra_rb_gb6_2 t_A_ra_ga7_gb1_1) 5)) (or (< (- t_C_rb_ga1_gc8_3 t_B_ra_rb_gb6_2) 4) ?v_110) (or (< ?v_261 4) (> ?v_261 4)) (or (< (- t_C_rb_ga1_gc7_3 t_B_ra_rb_gb6_2) 4) ?v_110) (or (< ?v_262 4) (> ?v_262 4)) (or (< (- t_C_rb_ga1_gc6_3 t_B_ra_rb_gb6_2) 4) ?v_110) (or ?v_263 ?v_264) (or (> ?v_265 4) (< ?v_265 4)) (or (> ?v_266 4) (< ?v_266 4)) ?v_86 ?v_87 ?v_174 ?v_175 ?v_176 (or ?v_108 (< (- t_C_rb_ga1_gc6_3 t_B_ra_rb_gb8_2) 4)) (or ?v_109 (< (- t_C_rb_ga1_gc6_3 t_B_ra_rb_gb7_2) 4)) (or ?v_267 ?v_144) (or (< ?v_97 5) ?v_155) (or (< (- t_B_ra_rb_gb8_2 t_A_ra_ga7_gb1_1) 5) ?v_155) (or (< ?v_268 5) (> ?v_268 5)) (or (< (- t_B_ra_rb_gb7_2 t_A_ra_ga7_gb1_1) 5) ?v_155) (or ?v_269 ?v_96) (or ?v_270 ?v_271) (or (> ?v_272 5) (< ?v_272 5)) ?v_133 ?v_139 ?v_195 ?v_196 (or ?v_154 (< (- t_B_ra_rb_gb7_2 t_A_ra_ga8_gb1_1) 5)) (or (< (- t_C_rb_ga1_gc8_3 t_B_ra_rb_gb7_2) 4) ?v_109) (or (< ?v_273 4) (> ?v_273 4)) (or (< (- t_C_rb_ga1_gc7_3 t_B_ra_rb_gb7_2) 4) ?v_109) (or ?v_274 ?v_275) (or (> ?v_276 4) (< ?v_276 4)) ?v_86 ?v_174 ?v_175 (or ?v_108 (< (- t_C_rb_ga1_gc7_3 t_B_ra_rb_gb8_2) 4)) (or ?v_277 ?v_142) (or (< ?v_95 5) ?v_154) (or (< (- t_B_ra_rb_gb8_2 t_A_ra_ga8_gb1_1) 5) ?v_154) (or ?v_278 ?v_94) (or ?v_279 ?v_280) ?v_139 ?v_195 (or (< (- t_C_rb_ga1_gc8_3 t_B_ra_rb_gb8_2) 4) ?v_108) (or ?v_281 ?v_282) ?v_139 ?v_195)))))))))))))))))))))))))))))))))))))))))))))))))))))))))))))))))))))))))))))))))))))))
(check-sat)
(exit)
